Gurobi Optimizer version 9.0.1 build v9.0.1rc0 (linux64)
Optimize a model with 266227 rows, 79555 columns and 1062479 nonzeros
Model fingerprint: 0x288fbeab
Coefficient statistics:
  Matrix range     [3e-01, 1e+03]
  Objective range  [1e+00, 1e+00]
  Bounds range     [1e+00, 1e+00]
  RHS range        [1e+00, 6e+03]
Presolve removed 199757 rows and 64579 columns
Presolve time: 1.40s
Presolved: 66470 rows, 15454 columns, 410291 nonzeros
Elapsed ordering time = 5s
Elapsed ordering time = 6s
Ordering time: 7.80s

Barrier statistics:
 Dense cols : 8
 AA' NZ     : 4.756e+06
 Factor NZ  : 3.087e+07 (roughly 300 MBytes of memory)
 Factor Ops : 4.090e+10 (roughly 1 second per iteration)
 Threads    : 1

                  Objective                Residual
Iter       Primal          Dual         Primal    Dual     Compl     Time
   0   6.19171538e+08 -2.20867237e+07  7.76e+04 1.00e+03  3.34e+06    12s
   1   4.46954566e+08 -1.50382683e+09  4.38e+04 3.77e+03  1.90e+06    15s
   2   2.65995963e+08 -2.61587717e+09  1.06e+04 1.16e+03  5.39e+05    17s
   3   1.78652246e+08 -2.31103942e+09  2.97e+03 2.92e+02  1.72e+05    19s
   4   9.12575144e+07 -1.24297234e+09  6.06e+02 4.22e+01  4.48e+04    21s
   5   5.47132152e+07 -9.49847622e+08  1.20e+02 2.74e+01  2.16e+04    24s
   6   3.58612238e+07 -2.54040020e+08  3.95e+01 1.79e+00  4.99e+03    26s
   7   2.11451208e+07 -1.35664886e+08  1.97e+01 6.99e-01  2.40e+03    28s
   8   7.71255604e+06 -4.51921777e+07  4.50e+00 1.80e-01  6.90e+02    31s
   9   4.26330988e+06 -9.99279913e+06  1.09e+00 2.65e-02  1.78e+02    34s
  10   3.29525398e+06 -2.22508231e+06  5.04e-01 5.35e-03  6.87e+01    36s
  11   2.66452572e+06  1.84078485e+06  7.63e-02 2.55e-11  1.06e+01    39s
  12   2.48195216e+06  2.35020372e+06  1.26e-02 9.73e-12  1.69e+00    43s
  13   2.46090923e+06  2.39370811e+06  7.01e-03 4.37e-11  8.73e-01    45s
  14   2.44747626e+06  2.40580334e+06  3.69e-03 3.09e-11  5.29e-01    47s
  15   2.43726232e+06  2.42764085e+06  1.02e-03 4.82e-11  1.25e-01    51s
  16   2.43335927e+06  2.43209574e+06  1.29e-04 1.97e-11  1.65e-02    55s
  17   2.43299820e+06  2.43249126e+06  6.04e-05 1.47e-11  6.77e-03    57s
  18   2.43282022e+06  2.43265130e+06  2.52e-05 7.09e-12  2.36e-03    60s
  19   2.43278593e+06  2.43266293e+06  1.83e-05 1.21e-11  1.73e-03    62s
  20   2.43274600e+06  2.43266530e+06  1.03e-05 2.10e-11  1.10e-03    64s
  21   2.43271989e+06  2.43268493e+06  5.04e-06 2.33e-10  5.00e-04    67s
  22   2.43271978e+06  2.43268496e+06  1.30e-05 2.13e-11  4.98e-04    69s
  23   2.43271947e+06  2.43268461e+06  1.24e-05 2.88e-11  4.97e-04    72s
  24   2.43269881e+06  2.43269443e+06  2.04e-06 3.49e-10  6.67e-05    74s
  25   2.43269846e+06  2.43269453e+06  2.22e-05 1.16e-09  6.00e-05    76s
  26   2.43269846e+06  2.43269453e+06  2.22e-05 1.07e-07  5.99e-05    78s
  27   2.43269846e+06  2.43269453e+06  2.22e-05 1.05e-07  6.00e-05    81s
  28   2.43269846e+06  2.43269453e+06  2.16e-05 9.31e-10  6.00e-05    83s
  29   2.43269847e+06  2.43269453e+06  2.08e-05 1.16e-09  5.99e-05    85s
  30   2.43269847e+06  2.43269450e+06  3.97e-05 6.98e-10  6.03e-05    88s
  31   2.43269844e+06  2.43269445e+06  3.87e-05 3.59e-08  6.06e-05    90s
  32   2.43269843e+06  2.43269445e+06  3.99e-05 6.98e-10  6.02e-05    92s
  33   2.43269843e+06  2.43269446e+06  4.12e-05 1.86e-09  6.01e-05    94s
  34   2.43269843e+06  2.43269445e+06  8.33e-05 1.63e-09  6.04e-05    97s
  35   2.43269844e+06  2.43269445e+06  8.65e-05 1.15e-07  6.03e-05    99s
  36   2.43269844e+06  2.43269445e+06  1.98e-04 1.40e-09  6.03e-05   101s
  37   2.43269843e+06  2.43269434e+06  2.02e-04 9.31e-10  6.14e-05   104s
  38   2.43269840e+06  2.43269434e+06  1.97e-04 1.40e-09  6.09e-05   106s
  39   2.43269840e+06  2.43269434e+06  2.08e-04 1.86e-09  6.09e-05   108s
  40   2.43269839e+06  2.43269434e+06  2.38e-04 9.58e-10  6.09e-05   110s
  41   2.43269839e+06  2.43269432e+06  2.38e-04 1.40e-09  6.13e-05   113s
  42   2.43269839e+06  2.43269432e+06  2.53e-04 1.40e-09  6.13e-05   115s
  43   2.43269837e+06  2.43269414e+06  2.24e-04 1.16e-09  6.32e-05   117s
  44   2.43269796e+06  2.43269460e+06  1.99e-04 1.40e-09  5.17e-05   120s
  45   2.43269493e+06  2.43269477e+06  1.48e-05 4.66e-10  2.56e-06   122s
  46   2.43269493e+06  2.43269477e+06  1.48e-05 1.22e-08  2.56e-06   124s
  47   2.43269493e+06  2.43269477e+06  2.34e-05 1.25e-08  2.56e-06   126s
  48   2.43269493e+06  2.43269477e+06  2.34e-05 1.25e-08  2.56e-06   129s
  49   2.43269493e+06  2.43269477e+06  5.15e-05 3.85e-08  2.56e-06   131s
  50   2.43269493e+06  2.43269477e+06  5.15e-05 3.85e-08  2.56e-06   134s
  51   2.43269493e+06  2.43269477e+06  4.85e-05 9.25e-07  2.56e-06   136s
  52   2.43269493e+06  2.43269477e+06  4.85e-05 8.43e-07  2.56e-06   138s
  53   2.43269493e+06  2.43269477e+06  4.85e-05 9.25e-07  2.55e-06   140s
  54   2.43269495e+06  2.43269477e+06  1.22e-04 9.25e-07  2.55e-06   143s
  55   2.43269495e+06  2.43269477e+06  1.24e-04 9.26e-07  2.55e-06   145s
  56   2.43269495e+06  2.43269477e+06  1.24e-04 9.26e-07  2.55e-06   147s

Barrier performed 56 iterations in 147.41 seconds
Sub-optimal termination - objective 2.43269493e+06

Solver name: Gurobi
Solve time: 147.52422768
Termination status: OTHER_LIMIT
Result count: 1
Primal status: FEASIBLE_POINT
Dual status: FEASIBLE_POINT
